#=======================================================
# FHI-aims file: geometry.in
# Created using the Atomic Simulation Environment (ASE)
# Mon Dec 16 15:18:16 2024
#=======================================================
lattice_vector 11.0000000000000000 0.0000000000000000 0.0000000000000000 
lattice_vector 0.0000000000000000 6.0000000000000000 0.0000000000000000 
lattice_vector 0.0000000000000000 0.0000000000000000 14.5492267835785682 
atom 4.0999999999999996 3.0000000000000000 0.0000000000000000 C
atom 4.7999999999999998 3.0000000000000000 1.2124355652982139 C
atom 4.0999999999999996 3.0000000000000000 2.4248711305964279 C
atom 4.7999999999999998 3.0000000000000000 3.6373066958946421 C
atom 4.0999999999999996 3.0000000000000000 4.8497422611928558 C
atom 4.7999999999999998 3.0000000000000000 6.0621778264910695 C
atom 4.0999999999999996 3.0000000000000000 7.2746133917892841 C
atom 4.7999999999999998 3.0000000000000000 8.4870489570874987 C
atom 4.0999999999999996 3.0000000000000000 9.6994845223857116 C
atom 4.7999999999999998 3.0000000000000000 10.9119200876839262 C
atom 4.0999999999999996 3.0000000000000000 12.1243556529821390 C
atom 4.7999999999999998 3.0000000000000000 13.3367912182803536 C
atom 6.1999999999999993 3.0000000000000000 1.2124355652982139 C
atom 6.8999999999999995 3.0000000000000000 2.4248711305964279 C
atom 6.1999999999999993 3.0000000000000000 3.6373066958946421 C
atom 6.8999999999999995 3.0000000000000000 4.8497422611928558 C
atom 6.1999999999999993 3.0000000000000000 6.0621778264910695 C
atom 6.8999999999999995 3.0000000000000000 7.2746133917892832 C
atom 6.1999999999999993 3.0000000000000000 8.4870489570874987 C
atom 6.8999999999999995 3.0000000000000000 9.6994845223857133 C
atom 6.1999999999999993 3.0000000000000000 10.9119200876839262 C
atom 6.8999999999999995 3.0000000000000000 12.1243556529821408 C
atom 6.1999999999999993 3.0000000000000000 13.3367912182803536 C
atom 6.8999999999999995 3.0000000000000000 0.0000000000000000 C
atom 2.9999999999999996 3.0000000000000000 0.0000000000000000 H
atom 2.9999999999999996 3.0000000000000000 2.4248711305964279 H
atom 2.9999999999999996 3.0000000000000000 4.8497422611928558 H
atom 2.9999999999999996 3.0000000000000000 7.2746133917892841 H
atom 2.9999999999999996 3.0000000000000000 9.6994845223857116 H
atom 2.9999999999999996 3.0000000000000000 12.1243556529821390 H
atom 8.0000000000000000 3.0000000000000000 2.4248711305964279 H
atom 8.0000000000000000 3.0000000000000000 4.8497422611928558 H
atom 8.0000000000000000 3.0000000000000000 7.2746133917892832 H
atom 8.0000000000000000 3.0000000000000000 9.6994845223857133 H
atom 8.0000000000000000 3.0000000000000000 12.1243556529821408 H
atom 8.0000000000000000 3.0000000000000000 0.0000000000000000 H
