lattice_vector  4.869960000000e+00  0.000000000000e+00  0.000000000000e+00
lattice_vector -1.028497048533e+00  4.915084718777e+00  0.000000000000e+00
lattice_vector -7.406678204179e-01 -1.327102452899e+00  5.155389444737e+00
atom -6.411839300000e-01  7.729136000000e-01 -6.203964700000e-01 Si
atom  1.092123900000e+00 -1.078317520000e+00  5.175908000000e-02 Si
atom  4.728576000000e-01 -2.241239160000e+00  2.325198180000e+00 Si
atom  1.413968660000e+00  1.946332280000e+00 -1.757099010000e+00 Si
atom  1.615518830000e+00  1.881580390000e+00  8.592833000000e-01 Si
atom -2.147305560000e+00 -2.130915500000e-01  1.986142140000e+00 Si